p cnf 966 2481
51 -2 -1 0
-51 2 0
-51 1 0
52 -51 -699 0
-52 51 0
-52 699 0
53 -700 -701 0
-53 700 0
-53 701 0
54 -53 -702 0
-54 53 0
-54 702 0
55 -703 -704 0
-55 703 0
-55 704 0
56 -8 -7 0
-56 8 0
-56 7 0
57 -56 -9 0
-57 56 0
-57 9 0
58 -705 -55 0
-58 705 0
-58 55 0
59 -706 -707 0
-59 706 0
-59 707 0
60 -59 -708 0
-60 59 0
-60 708 0
61 -709 -58 0
-61 709 0
-61 58 0
62 -710 -711 0
-62 710 0
-62 711 0
63 -62 -14 0
-63 62 0
-63 14 0
64 -712 -61 0
-64 712 0
-64 61 0
65 -713 -708 0
-65 713 0
-65 708 0
66 -65 -16 0
-66 65 0
-66 16 0
67 -714 -64 0
-67 714 0
-67 64 0
68 -715 -716 0
-68 715 0
-68 716 0
69 -68 -717 0
-69 68 0
-69 717 0
70 -718 -67 0
-70 718 0
-70 67 0
71 -719 -6 0
-71 719 0
-71 6 0
72 -71 -20 0
-72 71 0
-72 20 0
73 -720 -70 0
-73 720 0
-73 70 0
74 -21 -7 0
-74 21 0
-74 7 0
75 -74 -22 0
-75 74 0
-75 22 0
76 -721 -73 0
-76 721 0
-76 73 0
77 -23 -17 0
-77 23 0
-77 17 0
78 -77 -24 0
-78 77 0
-78 24 0
79 -722 -76 0
-79 722 0
-79 76 0
80 -723 -25 0
-80 723 0
-80 25 0
81 -80 -724 0
-81 80 0
-81 724 0
82 -725 -79 0
-82 725 0
-82 79 0
83 -22 -716 0
-83 22 0
-83 716 0
84 -83 -726 0
-84 83 0
-84 726 0
85 -727 -82 0
-85 727 0
-85 82 0
86 -28 -23 0
-86 28 0
-86 23 0
87 -86 -728 0
-87 86 0
-87 728 0
88 -729 -85 0
-88 729 0
-88 85 0
89 -16 -710 0
-89 16 0
-89 710 0
90 -89 -30 0
-90 89 0
-90 30 0
91 -730 -88 0
-91 730 0
-91 88 0
92 -12 -708 0
-92 12 0
-92 708 0
93 -92 -15 0
-93 92 0
-93 15 0
94 -731 -91 0
-94 731 0
-94 91 0
95 -7 -6 0
-95 7 0
-95 6 0
96 -95 -732 0
-96 95 0
-96 732 0
97 -733 -94 0
-97 733 0
-97 94 0
98 -33 -32 0
-98 33 0
-98 32 0
99 -98 -34 0
-99 98 0
-99 34 0
100 -734 -97 0
-100 734 0
-100 97 0
101 -708 -700 0
-101 708 0
-101 700 0
102 -101 -717 0
-102 101 0
-102 717 0
103 -735 -100 0
-103 735 0
-103 100 0
104 -736 -28 0
-104 736 0
-104 28 0
105 -104 -6 0
-105 104 0
-105 6 0
106 -737 -103 0
-106 737 0
-106 103 0
107 -36 -2 0
-107 36 0
-107 2 0
108 -107 -738 0
-108 107 0
-108 738 0
109 -739 -106 0
-109 739 0
-109 106 0
110 -740 -1 0
-110 740 0
-110 1 0
111 -110 -741 0
-111 110 0
-111 741 0
112 -742 -109 0
-112 742 0
-112 109 0
113 -743 -13 0
-113 743 0
-113 13 0
114 -113 -740 0
-114 113 0
-114 740 0
115 -744 -112 0
-115 744 0
-115 112 0
116 -38 -17 0
-116 38 0
-116 17 0
117 -116 -719 0
-117 116 0
-117 719 0
118 -745 -115 0
-118 745 0
-118 115 0
119 -746 -747 0
-119 746 0
-119 747 0
120 -119 -728 0
-120 119 0
-120 728 0
121 -748 -118 0
-121 748 0
-121 118 0
122 -749 -736 0
-122 749 0
-122 736 0
123 -122 -699 0
-123 122 0
-123 699 0
124 -750 -121 0
-124 750 0
-124 121 0
125 -751 -736 0
-125 751 0
-125 736 0
126 -125 -752 0
-126 125 0
-126 752 0
127 -753 -124 0
-127 753 0
-127 124 0
128 -33 -22 0
-128 33 0
-128 22 0
129 -128 -699 0
-129 128 0
-129 699 0
130 -754 -127 0
-130 754 0
-130 127 0
131 -702 -3 0
-131 702 0
-131 3 0
132 -131 -40 0
-132 131 0
-132 40 0
133 -755 -130 0
-133 755 0
-133 130 0
134 -756 -741 0
-134 756 0
-134 741 0
135 -134 -757 0
-135 134 0
-135 757 0
136 -758 -133 0
-136 758 0
-136 133 0
137 -39 -747 0
-137 39 0
-137 747 0
138 -137 -21 0
-138 137 0
-138 21 0
139 -759 -136 0
-139 759 0
-139 136 0
140 -749 -12 0
-140 749 0
-140 12 0
141 -140 -719 0
-141 140 0
-141 719 0
142 -760 -139 0
-142 760 0
-142 139 0
143 -761 -42 0
-143 761 0
-143 42 0
144 -143 -23 0
-144 143 0
-144 23 0
145 -762 -142 0
-145 762 0
-145 142 0
146 -27 -723 0
-146 27 0
-146 723 0
147 -146 -728 0
-147 146 0
-147 728 0
148 -763 -145 0
-148 763 0
-148 145 0
149 -764 -736 0
-149 764 0
-149 736 0
150 -149 -38 0
-150 149 0
-150 38 0
151 -765 -148 0
-151 765 0
-151 148 0
152 -44 -726 0
-152 44 0
-152 726 0
153 -152 -766 0
-153 152 0
-153 766 0
154 -767 -151 0
-154 767 0
-154 151 0
155 -768 -2 0
-155 768 0
-155 2 0
156 -155 -751 0
-156 155 0
-156 751 0
157 -769 -154 0
-157 769 0
-157 154 0
158 -732 -4 0
-158 732 0
-158 4 0
159 -158 -757 0
-159 158 0
-159 757 0
160 -770 -157 0
-160 770 0
-160 157 0
161 -37 -732 0
-161 37 0
-161 732 0
162 -161 -20 0
-162 161 0
-162 20 0
163 -771 -160 0
-163 771 0
-163 160 0
164 -768 -772 0
-164 768 0
-164 772 0
165 -164 -30 0
-165 164 0
-165 30 0
166 -773 -163 0
-166 773 0
-166 163 0
167 -761 -774 0
-167 761 0
-167 774 0
168 -167 -756 0
-168 167 0
-168 756 0
169 -775 -166 0
-169 775 0
-169 166 0
170 -18 -17 0
-170 18 0
-170 17 0
171 -170 -30 0
-171 170 0
-171 30 0
172 -776 -169 0
-172 776 0
-172 169 0
173 -23 -11 0
-173 23 0
-173 11 0
174 -173 -29 0
-174 173 0
-174 29 0
175 -777 -172 0
-175 777 0
-175 172 0
176 -41 -37 0
-176 41 0
-176 37 0
177 -176 -778 0
-177 176 0
-177 778 0
178 -779 -175 0
-178 779 0
-178 175 0
179 -768 -31 0
-179 768 0
-179 31 0
180 -179 -756 0
-180 179 0
-180 756 0
181 -780 -178 0
-181 780 0
-181 178 0
182 -747 -711 0
-182 747 0
-182 711 0
183 -182 -757 0
-183 182 0
-183 757 0
184 -781 -181 0
-184 781 0
-184 181 0
185 -39 -782 0
-185 39 0
-185 782 0
186 -185 -31 0
-186 185 0
-186 31 0
187 -783 -184 0
-187 783 0
-187 184 0
188 -28 -724 0
-188 28 0
-188 724 0
189 -188 -21 0
-189 188 0
-189 21 0
190 -784 -187 0
-190 784 0
-190 187 0
191 -751 -785 0
-191 751 0
-191 785 0
192 -191 -20 0
-192 191 0
-192 20 0
193 -786 -190 0
-193 786 0
-193 190 0
194 -18 -702 0
-194 18 0
-194 702 0
195 -194 -24 0
-195 194 0
-195 24 0
196 -787 -193 0
-196 787 0
-196 193 0
197 -128 -741 0
-197 128 0
-197 741 0
198 -788 -196 0
-198 788 0
-198 196 0
199 -740 -715 0
-199 740 0
-199 715 0
200 -199 -719 0
-200 199 0
-200 719 0
201 -789 -198 0
-201 789 0
-201 198 0
202 -736 -711 0
-202 736 0
-202 711 0
203 -202 -790 0
-203 202 0
-203 790 0
204 -791 -201 0
-204 791 0
-204 201 0
205 -36 -724 0
-205 36 0
-205 724 0
206 -205 -699 0
-206 205 0
-206 699 0
207 -792 -204 0
-207 792 0
-207 204 0
208 -740 -12 0
-208 740 0
-208 12 0
209 -208 -752 0
-209 208 0
-209 752 0
210 -793 -207 0
-210 793 0
-210 207 0
211 -794 -24 0
-211 794 0
-211 24 0
212 -211 -16 0
-212 211 0
-212 16 0
213 -795 -210 0
-213 795 0
-213 210 0
214 -764 -27 0
-214 764 0
-214 27 0
215 -214 -19 0
-215 214 0
-215 19 0
216 -796 -213 0
-216 796 0
-216 213 0
217 -48 -22 0
-217 48 0
-217 22 0
218 -217 -41 0
-218 217 0
-218 41 0
219 -797 -216 0
-219 797 0
-219 216 0
220 -49 -749 0
-220 49 0
-220 749 0
221 -220 -31 0
-221 220 0
-221 31 0
222 -798 -219 0
-222 798 0
-222 219 0
223 -50 -713 0
-223 50 0
-223 713 0
224 -223 -40 0
-224 223 0
-224 40 0
225 -799 -222 0
-225 799 0
-225 222 0
226 -24 -800 0
-226 24 0
-226 800 0
227 -226 -15 0
-227 226 0
-227 15 0
228 -801 -225 0
-228 801 0
-228 225 0
229 -21 -17 0
-229 21 0
-229 17 0
230 -229 -11 0
-230 229 0
-230 11 0
231 -802 -228 0
-231 802 0
-231 228 0
232 -711 -7 0
-232 711 0
-232 7 0
233 -232 -45 0
-233 232 0
-233 45 0
234 -803 -231 0
-234 803 0
-234 231 0
235 -47 -804 0
-235 47 0
-235 804 0
236 -235 -756 0
-236 235 0
-236 756 0
237 -805 -234 0
-237 805 0
-237 234 0
238 -44 -716 0
-238 44 0
-238 716 0
239 -238 -13 0
-239 238 0
-239 13 0
240 -806 -237 0
-240 806 0
-240 237 0
241 -34 -6 0
-241 34 0
-241 6 0
242 -241 -752 0
-242 241 0
-242 752 0
243 -807 -240 0
-243 807 0
-243 240 0
244 -808 -740 0
-244 808 0
-244 740 0
245 -244 -45 0
-245 244 0
-245 45 0
246 -809 -243 0
-246 809 0
-246 243 0
247 -743 -746 0
-247 743 0
-247 746 0
248 -247 -757 0
-248 247 0
-248 757 0
249 -810 -246 0
-249 810 0
-249 246 0
250 -736 -800 0
-250 736 0
-250 800 0
251 -250 -719 0
-251 250 0
-251 719 0
252 -811 -249 0
-252 811 0
-252 249 0
253 -723 -724 0
-253 723 0
-253 724 0
254 -253 -48 0
-254 253 0
-254 48 0
255 -812 -252 0
-255 812 0
-255 252 0
256 -32 -1 0
-256 32 0
-256 1 0
257 -256 -48 0
-257 256 0
-257 48 0
258 -813 -255 0
-258 813 0
-258 255 0
259 -711 -10 0
-259 711 0
-259 10 0
260 -259 -30 0
-260 259 0
-260 30 0
261 -814 -258 0
-261 814 0
-261 258 0
262 -33 -25 0
-262 33 0
-262 25 0
263 -262 -756 0
-263 262 0
-263 756 0
264 -815 -261 0
-264 815 0
-264 261 0
265 -21 -816 0
-265 21 0
-265 816 0
266 -265 -772 0
-266 265 0
-266 772 0
267 -817 -264 0
-267 817 0
-267 264 0
268 -774 -818 0
-268 774 0
-268 818 0
269 -268 -752 0
-269 268 0
-269 752 0
270 -819 -267 0
-270 819 0
-270 267 0
271 -800 -708 0
-271 800 0
-271 708 0
272 -271 -24 0
-272 271 0
-272 24 0
273 -820 -270 0
-273 820 0
-273 270 0
274 -816 -707 0
-274 816 0
-274 707 0
275 -274 -756 0
-275 274 0
-275 756 0
276 -821 -273 0
-276 821 0
-276 273 0
277 -743 -34 0
-277 743 0
-277 34 0
278 -277 -726 0
-278 277 0
-278 726 0
279 -822 -276 0
-279 822 0
-279 276 0
280 -764 -747 0
-280 764 0
-280 747 0
281 -280 -715 0
-281 280 0
-281 715 0
282 -823 -279 0
-282 823 0
-282 279 0
283 -47 -34 0
-283 47 0
-283 34 0
284 -283 -15 0
-284 283 0
-284 15 0
285 -824 -282 0
-285 824 0
-285 282 0
286 -28 -816 0
-286 28 0
-286 816 0
287 -286 -10 0
-287 286 0
-287 10 0
288 -825 -285 0
-288 825 0
-288 285 0
289 -736 -1 0
-289 736 0
-289 1 0
290 -289 -45 0
-290 289 0
-290 45 0
291 -826 -288 0
-291 826 0
-291 288 0
292 -747 -701 0
-292 747 0
-292 701 0
293 -292 -756 0
-293 292 0
-293 756 0
294 -827 -291 0
-294 827 0
-294 291 0
295 -50 -49 0
-295 50 0
-295 49 0
296 -295 -21 0
-296 295 0
-296 21 0
297 -828 -294 0
-297 828 0
-297 294 0
298 -48 -724 0
-298 48 0
-298 724 0
299 -298 -740 0
-299 298 0
-299 740 0
300 -829 -297 0
-300 829 0
-300 297 0
301 -26 -12 0
-301 26 0
-301 12 0
302 -301 -46 0
-302 301 0
-302 46 0
303 -830 -300 0
-303 830 0
-303 300 0
304 -726 -741 0
-304 726 0
-304 741 0
305 -304 -3 0
-305 304 0
-305 3 0
306 -831 -303 0
-306 831 0
-306 303 0
307 -23 -6 0
-307 23 0
-307 6 0
308 -307 -19 0
-308 307 0
-308 19 0
309 -832 -306 0
-309 832 0
-309 306 0
310 -766 -8 0
-310 766 0
-310 8 0
311 -310 -29 0
-311 310 0
-311 29 0
312 -833 -309 0
-312 833 0
-312 309 0
313 -42 -39 0
-313 42 0
-313 39 0
314 -313 -782 0
-314 313 0
-314 782 0
315 -834 -312 0
-315 834 0
-315 312 0
316 -28 -747 0
-316 28 0
-316 747 0
317 -316 -710 0
-317 316 0
-317 710 0
318 -835 -315 0
-318 835 0
-318 315 0
319 -43 -2 0
-319 43 0
-319 2 0
320 -319 -29 0
-320 319 0
-320 29 0
321 -836 -318 0
-321 836 0
-321 318 0
322 -48 -772 0
-322 48 0
-322 772 0
323 -322 -30 0
-323 322 0
-323 30 0
324 -837 -321 0
-324 837 0
-324 321 0
325 -740 -10 0
-325 740 0
-325 10 0
326 -325 -46 0
-326 325 0
-326 46 0
327 -838 -324 0
-327 838 0
-327 324 0
328 -28 -12 0
-328 28 0
-328 12 0
329 -328 -746 0
-329 328 0
-329 746 0
330 -839 -327 0
-330 839 0
-330 327 0
331 -50 -785 0
-331 50 0
-331 785 0
332 -331 -16 0
-332 331 0
-332 16 0
333 -840 -330 0
-333 840 0
-333 330 0
334 -41 -28 0
-334 41 0
-334 28 0
335 -334 -29 0
-335 334 0
-335 29 0
336 -841 -333 0
-336 841 0
-336 333 0
337 -749 -25 0
-337 749 0
-337 25 0
338 -337 -36 0
-338 337 0
-338 36 0
339 -842 -336 0
-339 842 0
-339 336 0
340 -18 -708 0
-340 18 0
-340 708 0
341 -340 -45 0
-341 340 0
-341 45 0
342 -843 -339 0
-342 843 0
-342 339 0
343 -44 -33 0
-343 44 0
-343 33 0
344 -343 -713 0
-344 343 0
-344 713 0
345 -844 -342 0
-345 844 0
-345 342 0
346 -800 -6 0
-346 800 0
-346 6 0
347 -346 -45 0
-347 346 0
-347 45 0
348 -845 -345 0
-348 845 0
-348 345 0
349 -818 -3 0
-349 818 0
-349 3 0
350 -349 -757 0
-350 349 0
-350 757 0
351 -846 -348 0
-351 846 0
-351 348 0
352 -36 -710 0
-352 36 0
-352 710 0
353 -352 -717 0
-353 352 0
-353 717 0
354 -847 -351 0
-354 847 0
-354 351 0
355 -43 -710 0
-355 43 0
-355 710 0
356 -355 -752 0
-356 355 0
-356 752 0
357 -848 -354 0
-357 848 0
-357 354 0
358 -28 -707 0
-358 28 0
-358 707 0
359 -358 -816 0
-359 358 0
-359 816 0
360 -849 -357 0
-360 849 0
-360 357 0
361 -794 -7 0
-361 794 0
-361 7 0
362 -361 -724 0
-362 361 0
-362 724 0
363 -850 -360 0
-363 850 0
-363 360 0
364 -38 -28 0
-364 38 0
-364 28 0
365 -364 -717 0
-365 364 0
-365 717 0
366 -851 -363 0
-366 851 0
-366 363 0
367 -48 -768 0
-367 48 0
-367 768 0
368 -367 -15 0
-368 367 0
-368 15 0
369 -852 -366 0
-369 852 0
-369 366 0
370 -756 -22 0
-370 756 0
-370 22 0
371 -370 -27 0
-371 370 0
-371 27 0
372 -853 -369 0
-372 853 0
-372 369 0
373 -47 -747 0
-373 47 0
-373 747 0
374 -373 -20 0
-374 373 0
-374 20 0
375 -854 -372 0
-375 854 0
-375 372 0
376 -768 -5 0
-376 768 0
-376 5 0
377 -376 -713 0
-377 376 0
-377 713 0
378 -855 -375 0
-378 855 0
-378 375 0
379 -743 -706 0
-379 743 0
-379 706 0
380 -379 -728 0
-380 379 0
-380 728 0
381 -856 -378 0
-381 856 0
-381 378 0
382 -37 -785 0
-382 37 0
-382 785 0
383 -382 -3 0
-383 382 0
-383 3 0
384 -857 -381 0
-384 857 0
-384 381 0
385 -232 -39 0
-385 232 0
-385 39 0
386 -858 -384 0
-386 858 0
-386 384 0
387 -31 -7 0
-387 31 0
-387 7 0
388 -387 -11 0
-388 387 0
-388 11 0
389 -859 -386 0
-389 859 0
-389 386 0
390 -790 -710 0
-390 790 0
-390 710 0
391 -390 -46 0
-391 390 0
-391 46 0
392 -860 -389 0
-392 860 0
-392 389 0
393 -700 -2 0
-393 700 0
-393 2 0
394 -393 -800 0
-394 393 0
-394 800 0
395 -861 -392 0
-395 861 0
-395 392 0
396 -50 -23 0
-396 50 0
-396 23 0
397 -396 -818 0
-397 396 0
-397 818 0
398 -862 -395 0
-398 862 0
-398 395 0
399 -740 -31 0
-399 740 0
-399 31 0
400 -399 -19 0
-400 399 0
-400 19 0
401 -863 -398 0
-401 863 0
-401 398 0
402 -804 -12 0
-402 804 0
-402 12 0
403 -402 -46 0
-403 402 0
-403 46 0
404 -864 -401 0
-404 864 0
-404 401 0
405 -723 -21 0
-405 723 0
-405 21 0
406 -405 -778 0
-406 405 0
-406 778 0
407 -865 -404 0
-407 865 0
-407 404 0
408 -761 -25 0
-408 761 0
-408 25 0
409 -408 -785 0
-409 408 0
-409 785 0
410 -866 -407 0
-410 866 0
-410 407 0
411 -741 -706 0
-411 741 0
-411 706 0
412 -411 -717 0
-412 411 0
-412 717 0
413 -867 -410 0
-413 867 0
-413 410 0
414 -736 -12 0
-414 736 0
-414 12 0
415 -414 -782 0
-415 414 0
-415 782 0
416 -868 -413 0
-416 868 0
-416 413 0
417 -747 -715 0
-417 747 0
-417 715 0
418 -417 -746 0
-418 417 0
-418 746 0
419 -869 -416 0
-419 869 0
-419 416 0
420 -790 -25 0
-420 790 0
-420 25 0
421 -420 -785 0
-421 420 0
-421 785 0
422 -870 -419 0
-422 870 0
-422 419 0
423 -12 -707 0
-423 12 0
-423 707 0
424 -423 -25 0
-424 423 0
-424 25 0
425 -871 -422 0
-425 871 0
-425 422 0
426 -26 -816 0
-426 26 0
-426 816 0
427 -426 -699 0
-427 426 0
-427 699 0
428 -872 -425 0
-428 872 0
-428 425 0
429 -25 -9 0
-429 25 0
-429 9 0
430 -429 -31 0
-430 429 0
-430 31 0
431 -873 -428 0
-431 873 0
-431 428 0
432 -778 -785 0
-432 778 0
-432 785 0
433 -432 -699 0
-433 432 0
-433 699 0
434 -874 -431 0
-434 874 0
-434 431 0
435 -710 -818 0
-435 710 0
-435 818 0
436 -435 -741 0
-436 435 0
-436 741 0
437 -875 -434 0
-437 875 0
-437 434 0
438 -876 -25 0
-438 876 0
-438 25 0
439 -438 -877 0
-439 438 0
-439 877 0
440 -878 -437 0
-440 878 0
-440 437 0
441 -808 -25 0
-441 808 0
-441 25 0
442 -441 -19 0
-442 441 0
-442 19 0
443 -879 -440 0
-443 879 0
-443 440 0
444 -47 -768 0
-444 47 0
-444 768 0
445 -444 -800 0
-445 444 0
-445 800 0
446 -880 -443 0
-446 880 0
-446 443 0
447 -816 -701 0
-447 816 0
-447 701 0
448 -447 -699 0
-448 447 0
-448 699 0
449 -881 -446 0
-449 881 0
-449 446 0
450 -33 -12 0
-450 33 0
-450 12 0
451 -450 -19 0
-451 450 0
-451 19 0
452 -882 -449 0
-452 882 0
-452 449 0
453 -778 -774 0
-453 778 0
-453 774 0
454 -453 -699 0
-454 453 0
-454 699 0
455 -883 -452 0
-455 883 0
-455 452 0
456 -26 -5 0
-456 26 0
-456 5 0
457 -456 -1 0
-457 456 0
-457 1 0
458 -884 -455 0
-458 884 0
-458 455 0
459 -42 -747 0
-459 42 0
-459 747 0
460 -459 -5 0
-460 459 0
-460 5 0
461 -885 -458 0
-461 885 0
-461 458 0
462 -715 -6 0
-462 715 0
-462 6 0
463 -462 -10 0
-463 462 0
-463 10 0
464 -886 -461 0
-464 886 0
-464 461 0
465 -23 -800 0
-465 23 0
-465 800 0
466 -465 -41 0
-466 465 0
-466 41 0
467 -887 -464 0
-467 887 0
-467 464 0
468 -794 -1 0
-468 794 0
-468 1 0
469 -468 -790 0
-469 468 0
-469 790 0
470 -888 -467 0
-470 888 0
-470 467 0
471 -876 -794 0
-471 876 0
-471 794 0
472 -471 -9 0
-472 471 0
-472 9 0
473 -889 -470 0
-473 889 0
-473 470 0
474 -749 -28 0
-474 749 0
-474 28 0
475 -474 -728 0
-475 474 0
-475 728 0
476 -890 -473 0
-476 890 0
-476 473 0
477 -32 -8 0
-477 32 0
-477 8 0
478 -477 -22 0
-478 477 0
-478 22 0
479 -891 -476 0
-479 891 0
-479 476 0
480 -747 -5 0
-480 747 0
-480 5 0
481 -480 -790 0
-481 480 0
-481 790 0
482 -892 -479 0
-482 892 0
-482 479 0
483 -43 -751 0
-483 43 0
-483 751 0
484 -483 -726 0
-484 483 0
-484 726 0
485 -893 -482 0
-485 893 0
-485 482 0
486 -14 -11 0
-486 14 0
-486 11 0
487 -486 -699 0
-487 486 0
-487 699 0
488 -894 -485 0
-488 894 0
-488 485 0
489 -36 -21 0
-489 36 0
-489 21 0
490 -489 -717 0
-490 489 0
-490 717 0
491 -895 -488 0
-491 895 0
-491 488 0
492 -808 -23 0
-492 808 0
-492 23 0
493 -492 -751 0
-493 492 0
-493 751 0
494 -896 -491 0
-494 896 0
-494 491 0
495 -804 -800 0
-495 804 0
-495 800 0
496 -495 -778 0
-496 495 0
-496 778 0
497 -897 -494 0
-497 897 0
-497 494 0
498 -717 -5 0
-498 717 0
-498 5 0
499 -498 -778 0
-499 498 0
-499 778 0
500 -898 -497 0
-500 898 0
-500 497 0
501 -43 -33 0
-501 43 0
-501 33 0
502 -501 -708 0
-502 501 0
-502 708 0
503 -899 -500 0
-503 899 0
-503 500 0
504 -736 -700 0
-504 736 0
-504 700 0
505 -504 -36 0
-505 504 0
-505 36 0
506 -900 -503 0
-506 900 0
-506 503 0
507 -50 -42 0
-507 50 0
-507 42 0
508 -507 -785 0
-508 507 0
-508 785 0
509 -901 -506 0
-509 901 0
-509 506 0
510 -31 -10 0
-510 31 0
-510 10 0
511 -510 -772 0
-511 510 0
-511 772 0
512 -902 -509 0
-512 902 0
-512 509 0
513 -701 -724 0
-513 701 0
-513 724 0
514 -513 -29 0
-514 513 0
-514 29 0
515 -903 -512 0
-515 903 0
-515 512 0
516 -808 -47 0
-516 808 0
-516 47 0
517 -516 -724 0
-517 516 0
-517 724 0
518 -904 -515 0
-518 904 0
-518 515 0
519 -34 -14 0
-519 34 0
-519 14 0
520 -519 -699 0
-520 519 0
-520 699 0
521 -905 -518 0
-521 905 0
-521 518 0
522 -732 -24 0
-522 732 0
-522 24 0
523 -522 -752 0
-523 522 0
-523 752 0
524 -906 -521 0
-524 906 0
-524 521 0
525 -43 -774 0
-525 43 0
-525 774 0
526 -525 -723 0
-526 525 0
-526 723 0
527 -907 -524 0
-527 907 0
-527 524 0
528 -794 -21 0
-528 794 0
-528 21 0
529 -528 -24 0
-529 528 0
-529 24 0
530 -908 -527 0
-530 908 0
-530 527 0
531 -480 -740 0
-531 480 0
-531 740 0
532 -909 -530 0
-532 909 0
-532 530 0
533 -706 -702 0
-533 706 0
-533 702 0
534 -533 -46 0
-534 533 0
-534 46 0
535 -910 -532 0
-535 910 0
-535 532 0
536 -790 -707 0
-536 790 0
-536 707 0
537 -536 -717 0
-537 536 0
-537 717 0
538 -911 -535 0
-538 911 0
-538 535 0
539 -746 -700 0
-539 746 0
-539 700 0
540 -539 -772 0
-540 539 0
-540 772 0
541 -912 -538 0
-541 912 0
-541 538 0
542 -37 -25 0
-542 37 0
-542 25 0
543 -542 -29 0
-543 542 0
-543 29 0
544 -913 -541 0
-544 913 0
-544 541 0
545 -34 -816 0
-545 34 0
-545 816 0
546 -545 -713 0
-546 545 0
-546 713 0
547 -914 -544 0
-547 914 0
-547 544 0
548 -31 -15 0
-548 31 0
-548 15 0
549 -548 -717 0
-549 548 0
-549 717 0
550 -915 -547 0
-550 915 0
-550 547 0
551 -736 -707 0
-551 736 0
-551 707 0
552 -551 -751 0
-552 551 0
-552 751 0
553 -916 -550 0
-553 916 0
-553 550 0
554 -701 -2 0
-554 701 0
-554 2 0
555 -554 -726 0
-555 554 0
-555 726 0
556 -917 -553 0
-556 917 0
-556 553 0
557 -49 -707 0
-557 49 0
-557 707 0
558 -557 -751 0
-558 557 0
-558 751 0
559 -918 -556 0
-559 918 0
-559 556 0
560 -715 -12 0
-560 715 0
-560 12 0
561 -560 -20 0
-561 560 0
-561 20 0
562 -919 -559 0
-562 919 0
-562 559 0
563 -23 -816 0
-563 23 0
-563 816 0
564 -563 -818 0
-564 563 0
-564 818 0
565 -920 -562 0
-565 920 0
-565 562 0
566 -711 -5 0
-566 711 0
-566 5 0
567 -566 -772 0
-567 566 0
-567 772 0
568 -921 -565 0
-568 921 0
-568 565 0
569 -26 -1 0
-569 26 0
-569 1 0
570 -569 -2 0
-570 569 0
-570 2 0
571 -922 -568 0
-571 922 0
-571 568 0
572 -33 -26 0
-572 33 0
-572 26 0
573 -572 -738 0
-573 572 0
-573 738 0
574 -923 -571 0
-574 923 0
-574 571 0
575 -774 -713 0
-575 774 0
-575 713 0
576 -575 -717 0
-576 575 0
-576 717 0
577 -924 -574 0
-577 924 0
-577 574 0
578 -738 -782 0
-578 738 0
-578 782 0
579 -578 -728 0
-579 578 0
-579 728 0
580 -925 -577 0
-580 925 0
-580 577 0
581 -25 -700 0
-581 25 0
-581 700 0
582 -581 -816 0
-582 581 0
-582 816 0
583 -926 -580 0
-583 926 0
-583 580 0
584 -743 -17 0
-584 743 0
-584 17 0
585 -584 -34 0
-585 584 0
-585 34 0
586 -927 -583 0
-586 927 0
-586 583 0
587 -438 -15 0
-587 438 0
-587 15 0
588 -928 -586 0
-588 928 0
-588 586 0
589 -38 -732 0
-589 38 0
-589 732 0
590 -589 -46 0
-590 589 0
-590 46 0
591 -929 -588 0
-591 929 0
-591 588 0
592 -761 -6 0
-592 761 0
-592 6 0
593 -592 -24 0
-593 592 0
-593 24 0
594 -930 -591 0
-594 930 0
-594 591 0
595 -764 -7 0
-595 764 0
-595 7 0
596 -595 -9 0
-596 595 0
-596 9 0
597 -931 -594 0
-597 931 0
-597 594 0
598 -26 -782 0
-598 26 0
-598 782 0
599 -598 -40 0
-599 598 0
-599 40 0
600 -932 -597 0
-600 932 0
-600 597 0
601 -46 -1 0
-601 46 0
-601 1 0
602 -601 -30 0
-602 601 0
-602 30 0
603 -933 -600 0
-603 933 0
-603 600 0
604 -723 -707 0
-604 723 0
-604 707 0
605 -604 -818 0
-605 604 0
-605 818 0
606 -934 -603 0
-606 934 0
-606 603 0
607 -774 -702 0
-607 774 0
-607 702 0
608 -607 -746 0
-608 607 0
-608 746 0
609 -935 -606 0
-609 935 0
-609 606 0
610 -816 -5 0
-610 816 0
-610 5 0
611 -610 -790 0
-611 610 0
-611 790 0
612 -936 -609 0
-612 936 0
-612 609 0
613 -49 -4 0
-613 49 0
-613 4 0
614 -613 -29 0
-614 613 0
-614 29 0
615 -937 -612 0
-615 937 0
-615 612 0
616 -732 -726 0
-616 732 0
-616 726 0
617 -616 -717 0
-617 616 0
-617 717 0
618 -938 -615 0
-618 938 0
-618 615 0
619 -764 -9 0
-619 764 0
-619 9 0
620 -619 -713 0
-620 619 0
-620 713 0
621 -939 -618 0
-621 939 0
-621 618 0
622 -33 -2 0
-622 33 0
-622 2 0
623 -622 -752 0
-623 622 0
-623 752 0
624 -940 -621 0
-624 940 0
-624 621 0
625 -6 -1 0
-625 6 0
-625 1 0
626 -625 -772 0
-626 625 0
-626 772 0
627 -941 -624 0
-627 941 0
-627 624 0
628 -37 -790 0
-628 37 0
-628 790 0
629 -628 -15 0
-629 628 0
-629 15 0
630 -942 -627 0
-630 942 0
-630 627 0
631 -50 -768 0
-631 50 0
-631 768 0
632 -631 -743 0
-632 631 0
-632 743 0
633 -943 -630 0
-633 943 0
-633 630 0
634 -26 -707 0
-634 26 0
-634 707 0
635 -634 -752 0
-635 634 0
-635 752 0
636 -944 -633 0
-636 944 0
-636 633 0
637 -800 -17 0
-637 800 0
-637 17 0
638 -637 -706 0
-638 637 0
-638 706 0
639 -945 -636 0
-639 945 0
-639 636 0
640 -27 -21 0
-640 27 0
-640 21 0
641 -640 -738 0
-641 640 0
-641 738 0
642 -946 -639 0
-642 946 0
-642 639 0
643 -743 -736 0
-643 743 0
-643 736 0
644 -643 -740 0
-644 643 0
-644 740 0
645 -947 -642 0
-645 947 0
-645 642 0
646 -48 -17 0
-646 48 0
-646 17 0
647 -646 -41 0
-647 646 0
-647 41 0
648 -948 -645 0
-648 948 0
-648 645 0
649 -557 -723 0
-649 557 0
-649 723 0
650 -949 -648 0
-650 949 0
-650 648 0
651 -756 -26 0
-651 756 0
-651 26 0
652 -651 -15 0
-652 651 0
-652 15 0
653 -950 -650 0
-653 950 0
-653 650 0
654 -746 -877 0
-654 746 0
-654 877 0
655 -654 -740 0
-655 654 0
-655 740 0
656 -951 -653 0
-656 951 0
-656 653 0
657 -764 -10 0
-657 764 0
-657 10 0
658 -657 -699 0
-658 657 0
-658 699 0
659 -952 -656 0
-659 952 0
-659 656 0
660 -28 -800 0
-660 28 0
-660 800 0
661 -660 -20 0
-661 660 0
-661 20 0
662 -953 -659 0
-662 953 0
-662 659 0
663 -50 -33 0
-663 50 0
-663 33 0
664 -663 -752 0
-664 663 0
-664 752 0
665 -954 -662 0
-665 954 0
-665 662 0
666 -955 -774 0
-666 955 0
-666 774 0
667 -666 -27 0
-667 666 0
-667 27 0
668 -956 -665 0
-668 956 0
-668 665 0
669 -761 -2 0
-669 761 0
-669 2 0
670 -669 -37 0
-670 669 0
-670 37 0
671 -957 -668 0
-671 957 0
-671 668 0
672 -32 -772 0
-672 32 0
-672 772 0
673 -672 -45 0
-673 672 0
-673 45 0
674 -958 -671 0
-674 958 0
-674 671 0
675 -42 -20 0
-675 42 0
-675 20 0
676 -675 -3 0
-676 675 0
-676 3 0
677 -959 -674 0
-677 959 0
-677 674 0
678 -44 -702 0
-678 44 0
-678 702 0
679 -678 -743 0
-679 678 0
-679 743 0
680 -960 -677 0
-680 960 0
-680 677 0
681 -743 -700 0
-681 743 0
-681 700 0
682 -681 -9 0
-682 681 0
-682 9 0
683 -961 -680 0
-683 961 0
-683 680 0
684 -32 -713 0
-684 32 0
-684 713 0
685 -684 -699 0
-685 684 0
-685 699 0
686 -962 -683 0
-686 962 0
-686 683 0
687 -955 -710 0
-687 955 0
-687 710 0
688 -687 -782 0
-688 687 0
-688 782 0
689 -963 -686 0
-689 963 0
-689 686 0
690 -8 -707 0
-690 8 0
-690 707 0
691 -690 -34 0
-691 690 0
-691 34 0
692 -964 -689 0
-692 964 0
-692 689 0
693 -50 -761 0
-693 50 0
-693 761 0
694 -693 -782 0
-694 693 0
-694 782 0
695 -965 -692 0
-695 965 0
-695 692 0
696 -21 -706 0
-696 21 0
-696 706 0
697 -696 -11 0
-697 696 0
-697 11 0
698 -966 -695 0
-698 966 0
-698 695 0
-699 -3 0
699 3 0
-700 -5 0
700 5 0
-701 -4 0
701 4 0
-702 -6 0
702 6 0
-703 -54 0
703 54 0
-704 -52 0
704 52 0
-705 -57 0
705 57 0
-706 -10 0
706 10 0
-707 -7 0
707 7 0
-708 -11 0
708 11 0
-709 -60 0
709 60 0
-710 -13 0
710 13 0
-711 -12 0
711 12 0
-712 -63 0
712 63 0
-713 -15 0
713 15 0
-714 -66 0
714 66 0
-715 -18 0
715 18 0
-716 -17 0
716 17 0
-717 -19 0
717 19 0
-718 -69 0
718 69 0
-719 -14 0
719 14 0
-720 -72 0
720 72 0
-721 -75 0
721 75 0
-722 -78 0
722 78 0
-723 -26 0
723 26 0
-724 -2 0
724 2 0
-725 -81 0
725 81 0
-726 -27 0
726 27 0
-727 -84 0
727 84 0
-728 -29 0
728 29 0
-729 -87 0
729 87 0
-730 -90 0
730 90 0
-731 -93 0
731 93 0
-732 -31 0
732 31 0
-733 -96 0
733 96 0
-734 -99 0
734 99 0
-735 -102 0
735 102 0
-736 -35 0
736 35 0
-737 -105 0
737 105 0
-738 -24 0
738 24 0
-739 -108 0
739 108 0
-740 -33 0
740 33 0
-741 -20 0
741 20 0
-742 -111 0
742 111 0
-743 -37 0
743 37 0
-744 -114 0
744 114 0
-745 -117 0
745 117 0
-746 -25 0
746 25 0
-747 -23 0
747 23 0
-748 -120 0
748 120 0
-749 -39 0
749 39 0
-750 -123 0
750 123 0
-751 -38 0
751 38 0
-752 -30 0
752 30 0
-753 -126 0
753 126 0
-754 -129 0
754 129 0
-755 -132 0
755 132 0
-756 -41 0
756 41 0
-757 -40 0
757 40 0
-758 -135 0
758 135 0
-759 -138 0
759 138 0
-760 -141 0
760 141 0
-761 -43 0
761 43 0
-762 -144 0
762 144 0
-763 -147 0
763 147 0
-764 -42 0
764 42 0
-765 -150 0
765 150 0
-766 -45 0
766 45 0
-767 -153 0
767 153 0
-768 -44 0
768 44 0
-769 -156 0
769 156 0
-770 -159 0
770 159 0
-771 -162 0
771 162 0
-772 -16 0
772 16 0
-773 -165 0
773 165 0
-774 -32 0
774 32 0
-775 -168 0
775 168 0
-776 -171 0
776 171 0
-777 -174 0
777 174 0
-778 -46 0
778 46 0
-779 -177 0
779 177 0
-780 -180 0
780 180 0
-781 -183 0
781 183 0
-782 -22 0
782 22 0
-783 -186 0
783 186 0
-784 -189 0
784 189 0
-785 -34 0
785 34 0
-786 -192 0
786 192 0
-787 -195 0
787 195 0
-788 -197 0
788 197 0
-789 -200 0
789 200 0
-790 -36 0
790 36 0
-791 -203 0
791 203 0
-792 -206 0
792 206 0
-793 -209 0
793 209 0
-794 -47 0
794 47 0
-795 -212 0
795 212 0
-796 -215 0
796 215 0
-797 -218 0
797 218 0
-798 -221 0
798 221 0
-799 -224 0
799 224 0
-800 -21 0
800 21 0
-801 -227 0
801 227 0
-802 -230 0
802 230 0
-803 -233 0
803 233 0
-804 -28 0
804 28 0
-805 -236 0
805 236 0
-806 -239 0
806 239 0
-807 -242 0
807 242 0
-808 -50 0
808 50 0
-809 -245 0
809 245 0
-810 -248 0
810 248 0
-811 -251 0
811 251 0
-812 -254 0
812 254 0
-813 -257 0
813 257 0
-814 -260 0
814 260 0
-815 -263 0
815 263 0
-816 -8 0
816 8 0
-817 -266 0
817 266 0
-818 -9 0
818 9 0
-819 -269 0
819 269 0
-820 -272 0
820 272 0
-821 -275 0
821 275 0
-822 -278 0
822 278 0
-823 -281 0
823 281 0
-824 -284 0
824 284 0
-825 -287 0
825 287 0
-826 -290 0
826 290 0
-827 -293 0
827 293 0
-828 -296 0
828 296 0
-829 -299 0
829 299 0
-830 -302 0
830 302 0
-831 -305 0
831 305 0
-832 -308 0
832 308 0
-833 -311 0
833 311 0
-834 -314 0
834 314 0
-835 -317 0
835 317 0
-836 -320 0
836 320 0
-837 -323 0
837 323 0
-838 -326 0
838 326 0
-839 -329 0
839 329 0
-840 -332 0
840 332 0
-841 -335 0
841 335 0
-842 -338 0
842 338 0
-843 -341 0
843 341 0
-844 -344 0
844 344 0
-845 -347 0
845 347 0
-846 -350 0
846 350 0
-847 -353 0
847 353 0
-848 -356 0
848 356 0
-849 -359 0
849 359 0
-850 -362 0
850 362 0
-851 -365 0
851 365 0
-852 -368 0
852 368 0
-853 -371 0
853 371 0
-854 -374 0
854 374 0
-855 -377 0
855 377 0
-856 -380 0
856 380 0
-857 -383 0
857 383 0
-858 -385 0
858 385 0
-859 -388 0
859 388 0
-860 -391 0
860 391 0
-861 -394 0
861 394 0
-862 -397 0
862 397 0
-863 -400 0
863 400 0
-864 -403 0
864 403 0
-865 -406 0
865 406 0
-866 -409 0
866 409 0
-867 -412 0
867 412 0
-868 -415 0
868 415 0
-869 -418 0
869 418 0
-870 -421 0
870 421 0
-871 -424 0
871 424 0
-872 -427 0
872 427 0
-873 -430 0
873 430 0
-874 -433 0
874 433 0
-875 -436 0
875 436 0
-876 -49 0
876 49 0
-877 -1 0
877 1 0
-878 -439 0
878 439 0
-879 -442 0
879 442 0
-880 -445 0
880 445 0
-881 -448 0
881 448 0
-882 -451 0
882 451 0
-883 -454 0
883 454 0
-884 -457 0
884 457 0
-885 -460 0
885 460 0
-886 -463 0
886 463 0
-887 -466 0
887 466 0
-888 -469 0
888 469 0
-889 -472 0
889 472 0
-890 -475 0
890 475 0
-891 -478 0
891 478 0
-892 -481 0
892 481 0
-893 -484 0
893 484 0
-894 -487 0
894 487 0
-895 -490 0
895 490 0
-896 -493 0
896 493 0
-897 -496 0
897 496 0
-898 -499 0
898 499 0
-899 -502 0
899 502 0
-900 -505 0
900 505 0
-901 -508 0
901 508 0
-902 -511 0
902 511 0
-903 -514 0
903 514 0
-904 -517 0
904 517 0
-905 -520 0
905 520 0
-906 -523 0
906 523 0
-907 -526 0
907 526 0
-908 -529 0
908 529 0
-909 -531 0
909 531 0
-910 -534 0
910 534 0
-911 -537 0
911 537 0
-912 -540 0
912 540 0
-913 -543 0
913 543 0
-914 -546 0
914 546 0
-915 -549 0
915 549 0
-916 -552 0
916 552 0
-917 -555 0
917 555 0
-918 -558 0
918 558 0
-919 -561 0
919 561 0
-920 -564 0
920 564 0
-921 -567 0
921 567 0
-922 -570 0
922 570 0
-923 -573 0
923 573 0
-924 -576 0
924 576 0
-925 -579 0
925 579 0
-926 -582 0
926 582 0
-927 -585 0
927 585 0
-928 -587 0
928 587 0
-929 -590 0
929 590 0
-930 -593 0
930 593 0
-931 -596 0
931 596 0
-932 -599 0
932 599 0
-933 -602 0
933 602 0
-934 -605 0
934 605 0
-935 -608 0
935 608 0
-936 -611 0
936 611 0
-937 -614 0
937 614 0
-938 -617 0
938 617 0
-939 -620 0
939 620 0
-940 -623 0
940 623 0
-941 -626 0
941 626 0
-942 -629 0
942 629 0
-943 -632 0
943 632 0
-944 -635 0
944 635 0
-945 -638 0
945 638 0
-946 -641 0
946 641 0
-947 -644 0
947 644 0
-948 -647 0
948 647 0
-949 -649 0
949 649 0
-950 -652 0
950 652 0
-951 -655 0
951 655 0
-952 -658 0
952 658 0
-953 -661 0
953 661 0
-954 -664 0
954 664 0
-955 -48 0
955 48 0
-956 -667 0
956 667 0
-957 -670 0
957 670 0
-958 -673 0
958 673 0
-959 -676 0
959 676 0
-960 -679 0
960 679 0
-961 -682 0
961 682 0
-962 -685 0
962 685 0
-963 -688 0
963 688 0
-964 -691 0
964 691 0
-965 -694 0
965 694 0
-966 -697 0
966 697 0
698 0
